(set-info :smt-lib-version 2.6)
(set-logic UF)
(set-info :source |Benchmarks from the paper: "Extending Sledgehammer with SMT Solvers" by Jasmin Blanchette, Sascha Bohme, and Lawrence C. Paulson, CADE 2011.  Translated to SMT2 by Andrew Reynolds and Morgan Deters.|)
(set-info :category "industrial")
(set-info :status unknown)
(declare-sort S1 0)
(declare-sort S2 0)
(declare-sort S3 0)
(declare-sort S4 0)
(declare-sort S5 0)
(declare-sort S6 0)
(declare-sort S7 0)
(declare-sort S8 0)
(declare-sort S9 0)
(declare-sort S10 0)
(declare-sort S11 0)
(declare-sort S12 0)
(declare-sort S13 0)
(declare-sort S14 0)
(declare-sort S15 0)
(declare-sort S16 0)
(declare-sort S17 0)
(declare-sort S18 0)
(declare-sort S19 0)
(declare-sort S20 0)
(declare-sort S21 0)
(declare-sort S22 0)
(declare-sort S23 0)
(declare-sort S24 0)
(declare-sort S25 0)
(declare-sort S26 0)
(declare-fun f1 () S1)
(declare-fun f2 () S1)
(declare-fun f3 (S2 S3 S4) S1)
(declare-fun f4 () S2)
(declare-fun f5 () S3)
(declare-fun f6 () S4)
(declare-fun f7 (S5 S2) S1)
(declare-fun f8 () S5)
(declare-fun f9 (S2 S6 S4 S6 S4) S1)
(declare-fun f10 () S6)
(declare-fun f11 () S4)
(declare-fun f12 () S6)
(declare-fun f13 (S2 S3 S6 S7) S1)
(declare-fun f14 () S7)
(declare-fun f15 () S5)
(declare-fun f16 (S10 S9) S1)
(declare-fun f17 (S11 S8) S10)
(declare-fun f18 (S5 S2) S11)
(declare-fun f19 (S6) S1)
(declare-fun f20 (S3 S3) S1)
(declare-fun f21 (S12 S6) S6)
(declare-fun f22 (S13 S6) S12)
(declare-fun f23 () S13)
(declare-fun f24 (S15 S14) S6)
(declare-fun f25 () S15)
(declare-fun f26 (S8 S16) S1)
(declare-fun f27 () S16)
(declare-fun f28 (S2 S8) S1)
(declare-fun f29 () S12)
(declare-fun f30 (S2 S8 S8 S7 S8) S1)
(declare-fun f31 (S2 S7) S1)
(declare-fun f32 (S2 S17 S3 S6 S7) S1)
(declare-fun f33 (S7) S1)
(declare-fun f34 (S2 S8 S8 S7 S8) S1)
(declare-fun f35 () S8)
(declare-fun f36 (S19 S18) S12)
(declare-fun f37 (S20 S6) S19)
(declare-fun f38 () S20)
(declare-fun f39 (S21 S8) S12)
(declare-fun f40 (S22 S8) S21)
(declare-fun f41 (S23 S6) S22)
(declare-fun f42 () S23)
(declare-fun f43 (S25 S24) S14)
(declare-fun f44 () S25)
(declare-fun f45 (S2 S8 S26) S1)
(declare-fun f46 () S13)
(assert (not (= f1 f2)))
(assert (not (= (f3 f4 f5 f6) f1)))
(assert (= (f7 f8 f4) f1))
(assert (= (f9 f4 f10 f11 f12 f6) f1))
(assert (= (f13 f4 f5 f10 f14) f1))
(assert (= (f3 f4 f5 f11) f1))
(assert (forall ((?v0 S2)) (=> (= (f7 f8 ?v0) f1) (= (f7 f15 ?v0) f1))))
(assert (forall ((?v0 S2) (?v1 S8) (?v2 S9)) (=> (= (f16 (f17 (f18 f8 ?v0) ?v1) ?v2) f1) (= (f16 (f17 (f18 f15 ?v0) ?v1) ?v2) f1))))
(assert (forall ((?v0 S6) (?v1 S2) (?v2 S4)) (=> (= (f19 ?v0) f1) (= (f9 ?v1 ?v0 ?v2 ?v0 ?v2) f1))))
(assert (forall ((?v0 S2) (?v1 S6) (?v2 S4) (?v3 S6) (?v4 S4)) (=> (= (f9 ?v0 ?v1 ?v2 ?v3 ?v4) f1) (= (f19 ?v3) f1))))
(assert (forall ((?v0 S2) (?v1 S3) (?v2 S6) (?v3 S7) (?v4 S3)) (=> (= (f13 ?v0 ?v1 ?v2 ?v3) f1) (=> (= (f20 ?v1 ?v4) f1) (= (f13 ?v0 ?v4 ?v2 ?v3) f1)))))
(assert (forall ((?v0 S2) (?v1 S3) (?v2 S6) (?v3 S7) (?v4 S6) (?v5 S7)) (=> (= (f13 ?v0 ?v1 ?v2 ?v3) f1) (=> (= (f13 ?v0 ?v1 ?v4 ?v5) f1) (= (f13 ?v0 ?v1 (f21 (f22 f23 ?v2) ?v4) ?v5) f1)))))
(assert (forall ((?v0 S2) (?v1 S14) (?v2 S4)) (let ((?v_0 (f24 f25 ?v1))) (= (f9 ?v0 ?v_0 ?v2 ?v_0 ?v2) f1))))
(assert (forall ((?v0 S2) (?v1 S14) (?v2 S4) (?v3 S6) (?v4 S4)) (let ((?v_0 (f24 f25 ?v1))) (=> (= (f9 ?v0 ?v_0 ?v2 ?v3 ?v4) f1) (=> (=> (= ?v3 ?v_0) (=> (= ?v4 ?v2) false)) false)))))
(assert (forall ((?v0 S8) (?v1 S5) (?v2 S2)) (=> (= (f26 ?v0 f27) f1) (=> (= (f7 ?v1 ?v2) f1) (= (f28 ?v2 ?v0) f1)))))
(assert (forall ((?v0 S2) (?v1 S6) (?v2 S4) (?v3 S6) (?v4 S4)) (let ((?v_0 (f21 f29 ?v3))) (=> (= (f9 ?v0 ?v1 ?v2 ?v_0 ?v4) f1) (= (f9 ?v0 (f21 f29 ?v1) ?v2 ?v_0 ?v4) f1)))))
(assert (forall ((?v0 S2) (?v1 S8) (?v2 S8) (?v3 S7) (?v4 S8) (?v5 S5)) (=> (= (f30 ?v0 ?v1 ?v2 ?v3 ?v4) f1) (=> (= (f7 ?v5 ?v0) f1) (= (f31 ?v0 ?v3) f1)))))
(assert (forall ((?v0 S2) (?v1 S3) (?v2 S6) (?v3 S7) (?v4 S17)) (=> (= (f13 ?v0 ?v1 ?v2 ?v3) f1) (= (f32 ?v0 ?v4 ?v1 ?v2 ?v3) f1))))
(assert (forall ((?v0 S2) (?v1 S17) (?v2 S3) (?v3 S6) (?v4 S7) (?v5 S6) (?v6 S7)) (=> (= (f32 ?v0 ?v1 ?v2 ?v3 ?v4) f1) (=> (= (f32 ?v0 ?v1 ?v2 ?v5 ?v6) f1) (= (f32 ?v0 ?v1 ?v2 (f21 (f22 f23 ?v3) ?v5) ?v6) f1)))))
(assert (forall ((?v0 S2) (?v1 S17) (?v2 S3) (?v3 S6) (?v4 S7) (?v5 S3)) (=> (= (f32 ?v0 ?v1 ?v2 ?v3 ?v4) f1) (=> (= (f20 ?v2 ?v5) f1) (= (f32 ?v0 ?v1 ?v5 ?v3 ?v4) f1)))))
(assert (forall ((?v0 S2) (?v1 S6) (?v2 S4) (?v3 S6) (?v4 S4) (?v5 S6)) (let ((?v_0 (f21 f29 ?v3))) (=> (= (f9 ?v0 ?v1 ?v2 ?v_0 ?v4) f1) (= (f9 ?v0 (f21 (f22 f23 ?v1) ?v5) ?v2 ?v_0 ?v4) f1)))))
(assert (forall ((?v0 S2) (?v1 S6) (?v2 S4) (?v3 S14) (?v4 S4) (?v5 S6) (?v6 S6) (?v7 S4)) (=> (= (f9 ?v0 ?v1 ?v2 (f24 f25 ?v3) ?v4) f1) (=> (= (f9 ?v0 ?v5 ?v4 ?v6 ?v7) f1) (= (f9 ?v0 (f21 (f22 f23 ?v1) ?v5) ?v2 ?v6 ?v7) f1)))))
(assert (forall ((?v0 S2) (?v1 S6) (?v2 S6) (?v3 S4) (?v4 S6) (?v5 S4)) (=> (= (f9 ?v0 (f21 (f22 f23 ?v1) ?v2) ?v3 ?v4 ?v5) f1) (=> (forall ((?v6 S14) (?v7 S4)) (=> (= (f9 ?v0 ?v1 ?v3 (f24 f25 ?v6) ?v7) f1) (=> (= (f9 ?v0 ?v2 ?v7 ?v4 ?v5) f1) false))) (=> (forall ((?v6 S6)) (let ((?v_0 (f21 f29 ?v6))) (=> (= ?v4 ?v_0) (=> (= (f9 ?v0 ?v1 ?v3 ?v_0 ?v5) f1) false)))) false)))))
(assert (forall ((?v0 S6) (?v1 S6) (?v2 S6)) (not (= (f21 f29 ?v0) (f21 (f22 f23 ?v1) ?v2)))))
(assert (forall ((?v0 S6) (?v1 S6) (?v2 S6)) (not (= (f21 (f22 f23 ?v0) ?v1) (f21 f29 ?v2)))))
(assert (forall ((?v0 S14) (?v1 S6) (?v2 S6)) (not (= (f24 f25 ?v0) (f21 (f22 f23 ?v1) ?v2)))))
(assert (forall ((?v0 S6) (?v1 S6) (?v2 S14)) (not (= (f21 (f22 f23 ?v0) ?v1) (f24 f25 ?v2)))))
(assert (forall ((?v0 S14) (?v1 S6)) (not (= (f24 f25 ?v0) (f21 f29 ?v1)))))
(assert (forall ((?v0 S6) (?v1 S14)) (not (= (f21 f29 ?v0) (f24 f25 ?v1)))))
(assert (forall ((?v0 S2) (?v1 S17) (?v2 S3) (?v3 S6) (?v4 S7) (?v5 S7)) (=> (= (f32 ?v0 ?v1 ?v2 ?v3 ?v4) f1) (=> (= (f33 ?v4) f1) (= (f32 ?v0 ?v1 ?v2 (f21 f29 ?v3) ?v5) f1)))))
(assert (forall ((?v0 S2) (?v1 S8) (?v2 S8) (?v3 S7) (?v4 S8)) (=> (= (f30 ?v0 ?v1 ?v2 ?v3 ?v4) f1) (= (f30 ?v0 ?v4 ?v2 ?v3 ?v4) f1))))
(assert (forall ((?v0 S2) (?v1 S8) (?v2 S8) (?v3 S7) (?v4 S8) (?v5 S7) (?v6 S8)) (=> (= (f30 ?v0 ?v1 ?v2 ?v3 ?v4) f1) (=> (= (f30 ?v0 ?v1 ?v2 ?v5 ?v6) f1) (and (= ?v5 ?v3) (= ?v6 ?v4))))))
(assert (forall ((?v0 S3)) (= (f20 ?v0 ?v0) f1)))
(assert (forall ((?v0 S14) (?v1 S14)) (= (= (f24 f25 ?v0) (f24 f25 ?v1)) (= ?v0 ?v1))))
(assert (forall ((?v0 S6) (?v1 S6)) (= (= (f21 f29 ?v0) (f21 f29 ?v1)) (= ?v0 ?v1))))
(assert (forall ((?v0 S6) (?v1 S6) (?v2 S6) (?v3 S6)) (= (= (f21 (f22 f23 ?v0) ?v1) (f21 (f22 f23 ?v2) ?v3)) (and (= ?v0 ?v2) (= ?v1 ?v3)))))
(assert (forall ((?v0 S3) (?v1 S3) (?v2 S3)) (=> (= (f20 ?v0 ?v1) f1) (=> (= (f20 ?v1 ?v2) f1) (= (f20 ?v0 ?v2) f1)))))
(assert (forall ((?v0 S3) (?v1 S3)) (=> (= (f20 ?v0 ?v1) f1) (=> (= (f20 ?v1 ?v0) f1) (= ?v0 ?v1)))))
(assert (forall ((?v0 S2) (?v1 S17) (?v2 S3) (?v3 S6) (?v4 S7)) (=> (= (f32 ?v0 ?v1 ?v2 (f21 f29 ?v3) ?v4) f1) (=> (forall ((?v5 S7)) (=> (= (f32 ?v0 ?v1 ?v2 ?v3 ?v5) f1) (=> (= (f33 ?v5) f1) false))) false))))
(assert (forall ((?v0 S2) (?v1 S8) (?v2 S8) (?v3 S7) (?v4 S8)) (=> (= (f30 ?v0 ?v1 ?v2 ?v3 ?v4) f1) (= (f34 ?v0 ?v1 ?v2 ?v3 ?v4) f1))))
(assert (forall ((?v0 S5) (?v1 S2)) (=> (= (f7 ?v0 ?v1) f1) (= (f28 ?v1 f35) f1))))
(assert (forall ((?v0 S2) (?v1 S6) (?v2 S4) (?v3 S14) (?v4 S4) (?v5 S6) (?v6 S6) (?v7 S4) (?v8 S18)) (let ((?v_0 (f21 f29 ?v6))) (=> (= (f9 ?v0 ?v1 ?v2 (f24 f25 ?v3) ?v4) f1) (=> (= (f9 ?v0 ?v5 ?v4 ?v_0 ?v7) f1) (= (f9 ?v0 (f21 (f36 (f37 f38 ?v1) ?v8) ?v5) ?v2 ?v_0 ?v7) f1))))))
(assert (forall ((?v0 S2) (?v1 S6) (?v2 S4) (?v3 S14) (?v4 S4) (?v5 S6) (?v6 S6) (?v7 S4) (?v8 S8) (?v9 S8)) (let ((?v_0 (f21 f29 ?v6))) (=> (= (f9 ?v0 ?v1 ?v2 (f24 f25 ?v3) ?v4) f1) (=> (= (f9 ?v0 ?v5 ?v4 ?v_0 ?v7) f1) (= (f9 ?v0 (f21 (f39 (f40 (f41 f42 ?v1) ?v8) ?v9) ?v5) ?v2 ?v_0 ?v7) f1))))))
(assert (forall ((?v0 S6)) (= (= (f19 ?v0) f1) (or (exists ((?v1 S14)) (= ?v0 (f24 f25 ?v1))) (exists ((?v1 S24)) (= ?v0 (f21 f29 (f24 f25 (f43 f44 ?v1)))))))))
(assert (forall ((?v0 S2) (?v1 S6) (?v2 S4) (?v3 S24) (?v4 S4)) (let ((?v_0 (f24 f25 (f43 f44 ?v3)))) (=> (= (f9 ?v0 ?v1 ?v2 ?v_0 ?v4) f1) (= (f9 ?v0 (f21 f29 ?v1) ?v2 (f21 f29 ?v_0) ?v4) f1)))))
(assert (forall ((?v0 S5) (?v1 S2) (?v2 S8)) (=> (= (f7 ?v0 ?v1) f1) (=> (= (f28 ?v1 ?v2) f1) (exists ((?v3 S26)) (= (f45 ?v1 ?v2 ?v3) f1))))))
(assert (forall ((?v0 S2) (?v1 S6) (?v2 S4) (?v3 S6) (?v4 S4) (?v5 S6)) (let ((?v_0 (f21 f29 ?v3))) (=> (= (f9 ?v0 ?v1 ?v2 ?v_0 ?v4) f1) (= (f9 ?v0 (f21 (f22 f46 ?v1) ?v5) ?v2 ?v_0 ?v4) f1)))))
(assert (forall ((?v0 S2) (?v1 S8) (?v2 S26) (?v3 S26)) (=> (= (f45 ?v0 ?v1 ?v2) f1) (=> (= (f45 ?v0 ?v1 ?v3) f1) (= ?v3 ?v2)))))
(assert (forall ((?v0 S6) (?v1 S8) (?v2 S8) (?v3 S6) (?v4 S6) (?v5 S8) (?v6 S8) (?v7 S6)) (= (= (f21 (f39 (f40 (f41 f42 ?v0) ?v1) ?v2) ?v3) (f21 (f39 (f40 (f41 f42 ?v4) ?v5) ?v6) ?v7)) (and (= ?v0 ?v4) (and (= ?v1 ?v5) (and (= ?v2 ?v6) (= ?v3 ?v7)))))))
(assert (forall ((?v0 S6) (?v1 S18) (?v2 S6) (?v3 S6) (?v4 S18) (?v5 S6)) (= (= (f21 (f36 (f37 f38 ?v0) ?v1) ?v2) (f21 (f36 (f37 f38 ?v3) ?v4) ?v5)) (and (= ?v0 ?v3) (and (= ?v1 ?v4) (= ?v2 ?v5))))))
(assert (forall ((?v0 S6) (?v1 S6) (?v2 S6) (?v3 S6)) (= (= (f21 (f22 f46 ?v0) ?v1) (f21 (f22 f46 ?v2) ?v3)) (and (= ?v0 ?v2) (= ?v1 ?v3)))))
(assert (forall ((?v0 S6) (?v1 S8) (?v2 S8) (?v3 S6) (?v4 S6) (?v5 S18) (?v6 S6)) (not (= (f21 (f39 (f40 (f41 f42 ?v0) ?v1) ?v2) ?v3) (f21 (f36 (f37 f38 ?v4) ?v5) ?v6)))))
(assert (forall ((?v0 S6) (?v1 S8) (?v2 S8) (?v3 S6) (?v4 S6) (?v5 S6)) (not (= (f21 (f39 (f40 (f41 f42 ?v0) ?v1) ?v2) ?v3) (f21 (f22 f46 ?v4) ?v5)))))
(assert (forall ((?v0 S6) (?v1 S18) (?v2 S6) (?v3 S6) (?v4 S8) (?v5 S8) (?v6 S6)) (not (= (f21 (f36 (f37 f38 ?v0) ?v1) ?v2) (f21 (f39 (f40 (f41 f42 ?v3) ?v4) ?v5) ?v6)))))
(assert (forall ((?v0 S6) (?v1 S18) (?v2 S6) (?v3 S6) (?v4 S6)) (not (= (f21 (f36 (f37 f38 ?v0) ?v1) ?v2) (f21 (f22 f46 ?v3) ?v4)))))
(assert (forall ((?v0 S6) (?v1 S6) (?v2 S6) (?v3 S8) (?v4 S8) (?v5 S6)) (not (= (f21 (f22 f46 ?v0) ?v1) (f21 (f39 (f40 (f41 f42 ?v2) ?v3) ?v4) ?v5)))))
(assert (forall ((?v0 S6) (?v1 S6) (?v2 S6) (?v3 S18) (?v4 S6)) (not (= (f21 (f22 f46 ?v0) ?v1) (f21 (f36 (f37 f38 ?v2) ?v3) ?v4)))))
(assert (forall ((?v0 S14) (?v1 S6) (?v2 S6)) (not (= (f24 f25 ?v0) (f21 (f22 f46 ?v1) ?v2)))))
(assert (forall ((?v0 S14) (?v1 S6) (?v2 S18) (?v3 S6)) (not (= (f24 f25 ?v0) (f21 (f36 (f37 f38 ?v1) ?v2) ?v3)))))
(assert (forall ((?v0 S14) (?v1 S6) (?v2 S8) (?v3 S8) (?v4 S6)) (not (= (f24 f25 ?v0) (f21 (f39 (f40 (f41 f42 ?v1) ?v2) ?v3) ?v4)))))
(assert (forall ((?v0 S6) (?v1 S6) (?v2 S14)) (not (= (f21 (f22 f46 ?v0) ?v1) (f24 f25 ?v2)))))
(assert (forall ((?v0 S6) (?v1 S18) (?v2 S6) (?v3 S14)) (not (= (f21 (f36 (f37 f38 ?v0) ?v1) ?v2) (f24 f25 ?v3)))))
(assert (forall ((?v0 S6) (?v1 S8) (?v2 S8) (?v3 S6) (?v4 S14)) (not (= (f21 (f39 (f40 (f41 f42 ?v0) ?v1) ?v2) ?v3) (f24 f25 ?v4)))))
(assert (forall ((?v0 S6) (?v1 S6) (?v2 S6)) (not (= (f21 f29 ?v0) (f21 (f22 f46 ?v1) ?v2)))))
(assert (forall ((?v0 S6) (?v1 S6) (?v2 S18) (?v3 S6)) (not (= (f21 f29 ?v0) (f21 (f36 (f37 f38 ?v1) ?v2) ?v3)))))
(assert (forall ((?v0 S6) (?v1 S6) (?v2 S8) (?v3 S8) (?v4 S6)) (not (= (f21 f29 ?v0) (f21 (f39 (f40 (f41 f42 ?v1) ?v2) ?v3) ?v4)))))
(assert (forall ((?v0 S6) (?v1 S6) (?v2 S6)) (not (= (f21 (f22 f46 ?v0) ?v1) (f21 f29 ?v2)))))
(assert (forall ((?v0 S6) (?v1 S18) (?v2 S6) (?v3 S6)) (not (= (f21 (f36 (f37 f38 ?v0) ?v1) ?v2) (f21 f29 ?v3)))))
(assert (forall ((?v0 S6) (?v1 S8) (?v2 S8) (?v3 S6) (?v4 S6)) (not (= (f21 (f39 (f40 (f41 f42 ?v0) ?v1) ?v2) ?v3) (f21 f29 ?v4)))))
(check-sat)
(exit)
